Nb of jobs, Nb of Machines, Time seed, Machine seed, Upper bound, Lower bound
3,6,-1,-1,-1,-1
Times
64,46,92,60,35,44
8,20,35,88,51,43
11,30,77,80,88,89
Machines
1,3,5,2,4,6
4,5,1,6,2,3
2,1,6,5,4,3
